p cnf 7230 17
5214 5505 5732 0
-5235 -5501 5737 0
5232 5493 -5735 0
5228 5539 5733 0
5235 -5738 0
-5232 -5736 0
-5228 -5734 0
-5737 5738 0
5735 5736 0
-5733 5734 0
5501 -5738 0
-5493 -5736 0
-5539 -5734 0
5731 -5732 0
-5521 -5740 0
-5239 -5740 0
-5731 5732 0
